Version identifier: 20.1.0.0 | 2020-11-10 | 9bedb6d68
Tried aggregator 2 times.
MIP Presolve eliminated 892 rows and 442 columns.
MIP Presolve modified 2412 coefficients.
Aggregator did 115 substitutions.
Reduced MIP has 1402 rows, 1108 columns, and 4603 nonzeros.
Reduced MIP has 219 binaries, 889 generals, 0 SOSs, and 0 indicators.
Presolve time = 0.01 sec. (5.59 ticks)
Found incumbent of value 2380.000000 after 0.03 sec. (11.34 ticks)
Probing fixed 30 vars, tightened 321 bounds.
Probing time = 0.00 sec. (1.01 ticks)
Tried aggregator 2 times.
Detecting symmetries...
MIP Presolve eliminated 581 rows and 30 columns.
MIP Presolve modified 117 coefficients.
Aggregator did 4 substitutions.
Reduced MIP has 817 rows, 1074 columns, and 2676 nonzeros.
Reduced MIP has 267 binaries, 807 generals, 0 SOSs, and 0 indicators.
Presolve time = 0.01 sec. (3.62 ticks)
Probing time = 0.00 sec. (0.22 ticks)
Clique table members: 5.
MIP emphasis: balance optimality and feasibility.
MIP search method: dynamic search.
Parallel mode: deterministic, using up to 24 threads.
Root relaxation solution time = 0.01 sec. (2.09 ticks)

        Nodes                                         Cuts/
   Node  Left     Objective  IInf  Best Integer    Best Bound    ItCnt     Gap

*     0+    0                         2380.0000        0.0000           100.00%
*     0+    0                           26.0000        0.0000           100.00%
      0     0        0.0000    30       26.0000        0.0000      256  100.00%
      0     0        0.0000    42       26.0000      Cuts: 58      307  100.00%
*     0+    0                           23.0000        0.0000           100.00%
      0     0        0.0000    40       23.0000      Cuts: 26      350  100.00%
*     0+    0                           22.0000        0.0000           100.00%
      0     0        0.0000    59       22.0000      Cuts: 44      410  100.00%
*     0+    0                           14.0000        0.0000           100.00%
*     0+    0                           12.0000        0.0000           100.00%
      0     0        cutoff             12.0000       12.0000      410    0.00%
Elapsed time = 0.56 sec. (87.20 ticks, tree = 0.01 MB, solutions = 6)

Implied bound cuts applied:  15
Mixed integer rounding cuts applied:  8
Zero-half cuts applied:  23
Lift and project cuts applied:  5
Gomory fractional cuts applied:  10

Root node processing (before b&c):
  Real time             =    0.57 sec. (87.31 ticks)
Parallel b&c, 24 threads:
  Real time             =    0.00 sec. (0.00 ticks)
  Sync time (average)   =    0.00 sec.
  Wait time (average)   =    0.00 sec.
                          ------------
Total (root+branch&cut) =    0.57 sec. (87.31 ticks)

Solution status = Optimal
Solution LB = 12
Solution UB = 12
Runtime = 0.56979 seconds
	Command being timed: "/home/min/git_repos/CS598MEBProject/CNT-ILP/build/cnt -s 2 ./output/k8_n15/simC_c1_k8_n15_u2_s1_del02.input-left.cnp"
	User time (seconds): 8.36
	System time (seconds): 0.07
	Percent of CPU this job got: 1382%
	Elapsed (wall clock) time (h:mm:ss or m:ss): 0:00.61
	Average shared text size (kbytes): 0
	Average unshared data size (kbytes): 0
	Average stack size (kbytes): 0
	Average total size (kbytes): 0
	Maximum resident set size (kbytes): 90844
	Average resident set size (kbytes): 0
	Major (requiring I/O) page faults: 0
	Minor (reclaiming a frame) page faults: 19816
	Voluntary context switches: 4110
	Involuntary context switches: 1114
	Swaps: 0
	File system inputs: 0
	File system outputs: 16
	Socket messages sent: 0
	Socket messages received: 0
	Signals delivered: 0
	Page size (bytes): 4096
	Exit status: 0
